NAME : portcgen-15-10
COMMENT : portcgen N=15, seed=10
TYPE : TSP
DIMENSION : 15
EDGE_WEIGHT_TYPE : EUC_2D
NODE_COORD_SECTION
1 61 97
2 63 96
3 96 102
4 103 63
5 107 86
6 74 88
7 74 84
8 56 95
9 92 43
10 86 62
11 80 72
12 61 96
13 100 80
14 79 76
15 87 84
